bond_style harmonic
bond_coeff   1        250     1.4       
bond_coeff   2        250     1.4
bond_coeff   3        0       1.4

angle_style cosine/squared
angle_coeff   1   5.9751434025        0

pair_style hybrid lj/gromacs/coul/gromacs 9.0 12.0  0.000001 12.0 
pair_coeff  * * lj/gromacs/coul/gromacs 0.0 4.7000 
pair_coeff	1 1	lj/gromacs/coul/gromacs 0.47801  4.7000

dielectric 2.5
